22      4       
11      12      11      18      
0       0       0       0       0       3       2       3       4       
6       0       6       5       0       2       5       13      
4       0       4       7       6       1       6       
1       0       5       0       4       2       6       7       
9       0       0       6       5       1       15      
3       0       8       0       10      2       9       10      
7       0       2       0       6       2       8       15      
7       2       6       5       6       1       16      
3       0       0       0       3       3       12      14      16      
4       0       0       0       7       2       11      21      
3       1       1       4       4       2       12      14      
5       1       0       0       0       2       15      18      
6       0       5       0       4       1       14      
5       0       0       2       0       1       18      
6       1       0       0       4       2       19      20      
9       0       0       0       10      1       17      
6       10      3       0       7       1       21      
3       4       0       0       0       1       19      
9       0       7       4       5       1       22      
8       0       0       0       10      1       22      
2       10      7       7       0       1       22      
0       0       0       0       0       0       